(set-logic ALL)
(declare-const n_VAR Int)
(assert (< 1 (div n_VAR 3)))
(assert (not (= (- (* 2 n_VAR) 2) 0)))
(assert (not (= (* (- (- n_VAR 1) (div (- (* n_VAR n_VAR) (* 2 n_VAR)) (- (* 2 n_VAR) 2))) (- (- n_VAR 1) (div (- (* n_VAR n_VAR) (* 2 n_VAR)) (- (* 2 n_VAR) 2)))) (+ 1 (* (div (- (* n_VAR n_VAR) (* 2 n_VAR)) (- (* 2 n_VAR) 2)) (div (- (* n_VAR n_VAR) (* 2 n_VAR)) (- (* 2 n_VAR) 2)))))))
(assert (< 2 (div n_VAR 3)))
(assert (not (= (- (* 2 n_VAR) 4) 0)))
(assert (= (* (- (- n_VAR 2) (div (- (* n_VAR n_VAR) (* 4 n_VAR)) (- (* 2 n_VAR) 4))) (- (- n_VAR 2) (div (- (* n_VAR n_VAR) (* 4 n_VAR)) (- (* 2 n_VAR) 4)))) (+ 4 (* (div (- (* n_VAR n_VAR) (* 4 n_VAR)) (- (* 2 n_VAR) 4)) (div (- (* n_VAR n_VAR) (* 4 n_VAR)) (- (* 2 n_VAR) 4))))))
(check-sat)
(get-value (n_VAR))
